n_res = 4;
rcap = [15, 14, 87, 86];
rtype = [1, 1, 2, 2];
n_tasks = 16;
modes = [ {1}, {2}, {3}, {4}, {5}, {6}, {7}, {8}, {9}, {10}, {11}, {12}, {13}, {14}, {15}, {16} ];
succ = [ {13}, {4, 6}, {8, 9, 15}, {5, 7, 11}, {9, 10, 12}, {9, 11, 13}, {8, 15}, {10, 12}, {14}, {13}, {14, 15, 16}, {16}, {14, 16}, {}, {}, {} ];
n_opt = 16;
dur = [5, 8, 1, 9, 1, 2, 8, 5, 9, 3, 4, 5, 6, 5, 7, 5];
rreq = [|  4,  9,  4,  4,  1,  6,  8,  3,  6,  4,  7,  3,  5,  3,  5,  7
        |  8,  2,  5,  6,  3,  6, 10,  2,  5,  5,  2,  2,  8,  1,  2,  5
        |  2,  9,  9,  2,  7,  9,  1, 10,  2,  8,  6,  5,  4,  5,  6,  2
        |  4,  5,  4,  8,  5,  5,  6,  6,  5,  2,  5,  3,  7,  6,  7,  8 |];
